3995
2763
4925
8983
4349
2002
7795
859
8926
2439
9497
2338
5833
1209
3176
1767
5140
6868
5081
2327
9251
7882
2934
9931
2428
4246
7008
4899
1589
4460
624
8987
8651
9193
9056
2142
8636
9282
2136
5934
4981
8712
7970
407
6384
3385
1065
6848
8767
2944
